70
1 0 10
2 0 5
2 1 7
3 0 2
3 1 6
3 2 3
4 0 3
4 1 5
4 2 10
4 3 8
5 0 1
5 1 8
5 2 1
5 3 10
5 4 5
6 0 3
6 1 6
6 2 4
6 3 4
6 4 7
6 5 2
7 0 2
7 1 9
7 2 5
7 3 10
7 4 9
7 5 1
7 6 5
8 0 8
8 1 6
8 2 5
8 3 2
8 4 7
8 5 1
8 6 9
8 7 7
9 0 7
9 1 1
9 2 8
9 3 5
9 4 5
9 5 5
9 6 4
9 7 9
9 8 6
10 0 10
10 1 7
10 2 1
10 3 3
10 4 1
10 5 1
10 6 6
10 7 7
10 8 10
10 9 3
11 0 6
11 1 6
11 2 1
11 3 2
11 4 8
11 5 2
11 6 7
11 7 8
11 8 1
11 9 10
11 10 6
12 0 9
12 1 3
12 2 10
12 3 9
12 4 7
12 5 2
12 6 7
12 7 5
12 8 3
12 9 8
12 10 1
12 11 7
13 0 10
13 1 2
13 2 7
13 3 7
13 4 4
13 5 4
13 6 9
13 7 6
13 8 9
13 9 2
13 10 1
13 11 2
13 12 9
14 0 1
14 1 8
14 2 4
14 3 9
14 4 2
14 5 2
14 6 6
14 7 10
14 8 4
14 9 7
14 10 7
14 11 10
14 12 5
14 13 9
15 0 6
15 1 10
15 2 4
15 3 4
15 4 7
15 5 3
15 6 1
15 7 4
15 8 2
15 9 6
15 10 8
15 11 4
15 12 7
15 13 6
15 14 5
16 0 9
16 1 8
16 2 10
16 3 7
16 4 1
16 5 6
16 6 7
16 7 8
16 8 9
16 9 6
16 10 5
16 11 5
16 12 10
16 13 2
16 14 6
16 15 8
17 0 6
17 1 4
17 2 1
17 3 7
17 4 5
17 5 9
17 6 8
17 7 7
17 8 6
17 9 8
17 10 8
17 11 8
17 12 5
17 13 2
17 14 4
17 15 7
17 16 7
18 0 8
18 1 7
18 2 8
18 3 4
18 4 1
18 5 1
18 6 6
18 7 9
18 8 1
18 9 2
18 10 4
18 11 3
18 12 6
18 13 1
18 14 1
18 15 9
18 16 3
18 17 1
19 0 9
19 1 5
19 2 7
19 3 6
19 4 5
19 5 10
19 6 3
19 7 5
19 8 3
19 9 5
19 10 1
19 11 4
19 12 10
19 13 4
19 14 2
19 15 8
19 16 9
19 17 3
19 18 6
20 0 1
20 1 8
20 2 2
20 3 3
20 4 1
20 5 10
20 6 4
20 7 3
20 8 4
20 9 1
20 10 5
20 11 3
20 12 2
20 13 5
20 14 1
20 15 10
20 16 7
20 17 8
20 18 1
20 19 1
21 0 2
21 1 8
21 2 9
21 3 10
21 4 1
21 5 10
21 6 10
21 7 5
21 8 6
21 9 1
21 10 5
21 11 1
21 12 10
21 13 7
21 14 4
21 15 10
21 16 1
21 17 7
21 18 3
21 19 1
21 20 2
22 0 1
22 1 4
22 2 6
22 3 7
22 4 5
22 5 9
22 6 6
22 7 4
22 8 6
22 9 1
22 10 4
22 11 9
22 12 2
22 13 7
22 14 9
22 15 5
22 16 7
22 17 5
22 18 8
22 19 6
22 20 10
22 21 6
23 0 10
23 1 4
23 2 2
23 3 1
23 4 2
23 5 6
23 6 6
23 7 2
23 8 7
23 9 1
23 10 8
23 11 10
23 12 6
23 13 10
23 14 6
23 15 9
23 16 3
23 17 2
23 18 1
23 19 4
23 20 3
23 21 2
23 22 2
24 0 2
24 1 9
24 2 4
24 3 6
24 4 1
24 5 9
24 6 9
24 7 7
24 8 3
24 9 1
24 10 9
24 11 7
24 12 2
24 13 5
24 14 1
24 15 4
24 16 7
24 17 5
24 18 6
24 19 6
24 20 2
24 21 8
24 22 10
24 23 1
25 0 4
25 1 8
25 2 8
25 3 5
25 4 4
25 5 2
25 6 7
25 7 2
25 8 3
25 9 2
25 10 2
25 11 10
25 12 2
25 13 5
25 14 1
25 15 5
25 16 8
25 17 10
25 18 4
25 19 5
25 20 2
25 21 1
25 22 10
25 23 8
25 24 4
26 0 6
26 1 4
26 2 9
26 3 5
26 4 3
26 5 9
26 6 4
26 7 8
26 8 3
26 9 7
26 10 7
26 11 1
26 12 6
26 13 5
26 14 8
26 15 8
26 16 1
26 17 6
26 18 2
26 19 10
26 20 5
26 21 8
26 22 5
26 23 4
26 24 1
26 25 9
27 0 8
27 1 2
27 2 3
27 3 2
27 4 8
27 5 10
27 6 7
27 7 5
27 8 6
27 9 5
27 10 10
27 11 7
27 12 2
27 13 6
27 14 1
27 15 2
27 16 7
27 17 6
27 18 4
27 19 1
27 20 5
27 21 5
27 22 1
27 23 1
27 24 2
27 25 10
27 26 9
28 0 6
28 1 1
28 2 4
28 3 6
28 4 4
28 5 9
28 6 1
28 7 10
28 8 7
28 9 2
28 10 8
28 11 4
28 12 5
28 13 2
28 14 2
28 15 4
28 16 1
28 17 2
28 18 8
28 19 3
28 20 2
28 21 6
28 22 1
28 23 3
28 24 10
28 25 4
28 26 10
28 27 7
29 0 9
29 1 6
29 2 8
29 3 10
29 4 10
29 5 2
29 6 5
29 7 2
29 8 2
29 9 1
29 10 10
29 11 6
29 12 3
29 13 5
29 14 1
29 15 8
29 16 3
29 17 3
29 18 6
29 19 10
29 20 9
29 21 7
29 22 2
29 23 7
29 24 9
29 25 9
29 26 3
29 27 4
29 28 3
30 0 9
30 1 7
30 2 6
30 3 3
30 4 1
30 5 9
30 6 9
30 7 1
30 8 9
30 9 7
30 10 5
30 11 9
30 12 7
30 13 8
30 14 7
30 15 4
30 16 6
30 17 2
30 18 7
30 19 2
30 20 9
30 21 1
30 22 4
30 23 9
30 24 4
30 25 10
30 26 9
30 27 6
30 28 4
30 29 10
31 0 1
31 1 3
31 2 9
31 3 9
31 4 5
31 5 3
31 6 2
31 7 9
31 8 9
31 9 2
31 10 1
31 11 8
31 12 10
31 13 8
31 14 8
31 15 9
31 16 3
31 17 3
31 18 3
31 19 7
31 20 7
31 21 7
31 22 6
31 23 2
31 24 5
31 25 2
31 26 8
31 27 7
31 28 6
31 29 10
31 30 9
32 0 9
32 1 6
32 2 3
32 3 4
32 4 8
32 5 4
32 6 9
32 7 8
32 8 5
32 9 7
32 10 3
32 11 6
32 12 10
32 13 3
32 14 5
32 15 9
32 16 10
32 17 3
32 18 2
32 19 1
32 20 5
32 21 10
32 22 10
32 23 9
32 24 7
32 25 6
32 26 4
32 27 6
32 28 6
32 29 6
32 30 2
32 31 4
33 0 3
33 1 3
33 2 4
33 3 10
33 4 10
33 5 7
33 6 8
33 7 6
33 8 2
33 9 7
33 10 3
33 11 1
33 12 7
33 13 2
33 14 9
33 15 8
33 16 6
33 17 10
33 18 6
33 19 5
33 20 3
33 21 1
33 22 1
33 23 10
33 24 3
33 25 6
33 26 6
33 27 1
33 28 4
33 29 1
33 30 1
33 31 6
33 32 7
34 0 10
34 1 6
34 2 8
34 3 5
34 4 8
34 5 7
34 6 7
34 7 8
34 8 4
34 9 6
34 10 5
34 11 2
34 12 2
34 13 6
34 14 8
34 15 9
34 16 9
34 17 2
34 18 2
34 19 3
34 20 7
34 21 9
34 22 3
34 23 5
34 24 10
34 25 6
34 26 1
34 27 9
34 28 9
34 29 4
34 30 6
34 31 3
34 32 2
34 33 10
35 0 6
35 1 7
35 2 4
35 3 10
35 4 8
35 5 10
35 6 8
35 7 2
35 8 8
35 9 2
35 10 10
35 11 4
35 12 10
35 13 9
35 14 5
35 15 5
35 16 2
35 17 6
35 18 8
35 19 4
35 20 5
35 21 1
35 22 4
35 23 3
35 24 7
35 25 8
35 26 2
35 27 8
35 28 3
35 29 9
35 30 7
35 31 3
35 32 2
35 33 9
35 34 6
36 0 8
36 1 3
36 2 3
36 3 2
36 4 10
36 5 7
36 6 3
36 7 3
36 8 6
36 9 3
36 10 7
36 11 7
36 12 1
36 13 2
36 14 3
36 15 9
36 16 7
36 17 5
36 18 8
36 19 3
36 20 5
36 21 5
36 22 2
36 23 2
36 24 10
36 25 6
36 26 4
36 27 5
36 28 3
36 29 5
36 30 2
36 31 3
36 32 5
36 33 9
36 34 4
36 35 6
37 0 3
37 1 4
37 2 2
37 3 6
37 4 7
37 5 4
37 6 7
37 7 7
37 8 10
37 9 2
37 10 10
37 11 3
37 12 4
37 13 7
37 14 1
37 15 4
37 16 3
37 17 8
37 18 2
37 19 2
37 20 2
37 21 4
37 22 6
37 23 5
37 24 8
37 25 4
37 26 4
37 27 7
37 28 6
37 29 9
37 30 1
37 31 9
37 32 1
37 33 7
37 34 9
37 35 5
37 36 9
38 0 4
38 1 7
38 2 2
38 3 8
38 4 2
38 5 1
38 6 1
38 7 5
38 8 5
38 9 5
38 10 9
38 11 10
38 12 6
38 13 9
38 14 3
38 15 9
38 16 9
38 17 7
38 18 6
38 19 10
38 20 5
38 21 1
38 22 6
38 23 8
38 24 5
38 25 6
38 26 6
38 27 9
38 28 5
38 29 3
38 30 6
38 31 4
38 32 6
38 33 10
38 34 7
38 35 2
38 36 2
38 37 10
39 0 2
39 1 10
39 2 8
39 3 9
39 4 4
39 5 7
39 6 2
39 7 5
39 8 1
39 9 3
39 10 5
39 11 9
39 12 10
39 13 4
39 14 6
39 15 5
39 16 1
39 17 8
39 18 6
39 19 7
39 20 7
39 21 3
39 22 8
39 23 4
39 24 3
39 25 10
39 26 8
39 27 5
39 28 6
39 29 3
39 30 1
39 31 4
39 32 10
39 33 3
39 34 7
39 35 4
39 36 1
39 37 9
39 38 7
40 0 4
40 1 6
40 2 3
40 3 3
40 4 4
40 5 7
40 6 3
40 7 4
40 8 9
40 9 3
40 10 3
40 11 4
40 12 9
40 13 1
40 14 6
40 15 6
40 16 3
40 17 10
40 18 9
40 19 5
40 20 1
40 21 3
40 22 6
40 23 2
40 24 1
40 25 9
40 26 3
40 27 4
40 28 6
40 29 1
40 30 2
40 31 8
40 32 9
40 33 5
40 34 8
40 35 2
40 36 6
40 37 8
40 38 6
40 39 3
41 0 8
41 1 9
41 2 5
41 3 2
41 4 4
41 5 4
41 6 6
41 7 6
41 8 2
41 9 3
41 10 3
41 11 7
41 12 7
41 13 5
41 14 2
41 15 4
41 16 6
41 17 9
41 18 5
41 19 4
41 20 9
41 21 5
41 22 9
41 23 5
41 24 4
41 25 10
41 26 7
41 27 7
41 28 1
41 29 7
41 30 1
41 31 10
41 32 8
41 33 9
41 34 10
41 35 8
41 36 5
41 37 4
41 38 2
41 39 8
41 40 2
42 0 10
42 1 9
42 2 7
42 3 2
42 4 1
42 5 8
42 6 8
42 7 6
42 8 7
42 9 4
42 10 8
42 11 4
42 12 6
42 13 7
42 14 4
42 15 5
42 16 3
42 17 1
42 18 5
42 19 4
42 20 2
42 21 8
42 22 8
42 23 2
42 24 5
42 25 2
42 26 4
42 27 6
42 28 10
42 29 7
42 30 10
42 31 5
42 32 5
42 33 1
42 34 6
42 35 9
42 36 5
42 37 1
42 38 5
42 39 2
42 40 5
42 41 3
43 0 1
43 1 4
43 2 9
43 3 6
43 4 10
43 5 5
43 6 9
43 7 6
43 8 4
43 9 1
43 10 7
43 11 7
43 12 10
43 13 6
43 14 9
43 15 1
43 16 1
43 17 6
43 18 8
43 19 4
43 20 7
43 21 5
43 22 10
43 23 7
43 24 8
43 25 9
43 26 9
43 27 10
43 28 4
43 29 9
43 30 7
43 31 7
43 32 8
43 33 9
43 34 3
43 35 9
43 36 5
43 37 9
43 38 2
43 39 3
43 40 6
43 41 10
43 42 4
44 0 5
44 1 8
44 2 8
44 3 3
44 4 7
44 5 7
44 6 5
44 7 4
44 8 10
44 9 6
44 10 1
44 11 10
44 12 7
44 13 2
44 14 3
44 15 2
44 16 3
44 17 4
44 18 5
44 19 7
44 20 4
44 21 3
44 22 7
44 23 5
44 24 6
44 25 5
44 26 3
44 27 1
44 28 9
44 29 6
44 30 7
44 31 3
44 32 1
44 33 4
44 34 10
44 35 1
44 36 3
44 37 2
44 38 4
44 39 6
44 40 5
44 41 5
44 42 9
44 43 6
45 0 10
45 1 3
45 2 5
45 3 4
45 4 3
45 5 8
45 6 1
45 7 1
45 8 5
45 9 9
45 10 8
45 11 8
45 12 5
45 13 6
45 14 10
45 15 1
45 16 2
45 17 7
45 18 10
45 19 5
45 20 2
45 21 4
45 22 9
45 23 9
45 24 2
45 25 5
45 26 7
45 27 6
45 28 5
45 29 5
45 30 10
45 31 5
45 32 5
45 33 2
45 34 7
45 35 5
45 36 9
45 37 10
45 38 2
45 39 10
45 40 9
45 41 4
45 42 8
45 43 3
45 44 4
46 0 9
46 1 7
46 2 3
46 3 8
46 4 9
46 5 8
46 6 2
46 7 6
46 8 8
46 9 2
46 10 1
46 11 4
46 12 10
46 13 2
46 14 10
46 15 5
46 16 1
46 17 5
46 18 10
46 19 9
46 20 8
46 21 2
46 22 8
46 23 6
46 24 1
46 25 6
46 26 10
46 27 2
46 28 9
46 29 1
46 30 6
46 31 10
46 32 10
46 33 7
46 34 7
46 35 6
46 36 3
46 37 8
46 38 2
46 39 7
46 40 3
46 41 10
46 42 2
46 43 3
46 44 7
46 45 3
47 0 1
47 1 9
47 2 7
47 3 7
47 4 6
47 5 8
47 6 2
47 7 4
47 8 1
47 9 6
47 10 9
47 11 3
47 12 3
47 13 9
47 14 1
47 15 2
47 16 1
47 17 3
47 18 3
47 19 4
47 20 3
47 21 6
47 22 9
47 23 7
47 24 6
47 25 3
47 26 1
47 27 1
47 28 10
47 29 1
47 30 1
47 31 2
47 32 1
47 33 10
47 34 2
47 35 8
47 36 4
47 37 1
47 38 6
47 39 4
47 40 9
47 41 4
47 42 7
47 43 6
47 44 2
47 45 5
47 46 4
48 0 3
48 1 9
48 2 9
48 3 10
48 4 2
48 5 2
48 6 6
48 7 1
48 8 6
48 9 4
48 10 4
48 11 6
48 12 9
48 13 10
48 14 8
48 15 4
48 16 1
48 17 1
48 18 6
48 19 5
48 20 6
48 21 4
48 22 9
48 23 6
48 24 6
48 25 1
48 26 3
48 27 3
48 28 3
48 29 8
48 30 9
48 31 10
48 32 1
48 33 3
48 34 7
48 35 2
48 36 5
48 37 9
48 38 8
48 39 7
48 40 10
48 41 10
48 42 7
48 43 1
48 44 5
48 45 9
48 46 7
48 47 10
49 0 8
49 1 2
49 2 5
49 3 7
49 4 4
49 5 4
49 6 8
49 7 1
49 8 5
49 9 9
49 10 3
49 11 1
49 12 10
49 13 6
49 14 1
49 15 4
49 16 7
49 17 7
49 18 6
49 19 5
49 20 4
49 21 2
49 22 3
49 23 10
49 24 8
49 25 5
49 26 1
49 27 1
49 28 3
49 29 5
49 30 10
49 31 3
49 32 1
49 33 9
49 34 6
49 35 1
49 36 1
49 37 2
49 38 1
49 39 9
49 40 9
49 41 5
49 42 4
49 43 3
49 44 1
49 45 2
49 46 10
49 47 9
49 48 7
50 0 10
50 1 9
50 2 6
50 3 10
50 4 8
50 5 2
50 6 1
50 7 7
50 8 4
50 9 8
50 10 5
50 11 6
50 12 2
50 13 6
50 14 8
50 15 3
50 16 3
50 17 8
50 18 5
50 19 4
50 20 8
50 21 7
50 22 5
50 23 3
50 24 10
50 25 5
50 26 2
50 27 1
50 28 9
50 29 8
50 30 5
50 31 4
50 32 5
50 33 4
50 34 6
50 35 6
50 36 9
50 37 7
50 38 9
50 39 3
50 40 10
50 41 5
50 42 8
50 43 3
50 44 8
50 45 6
50 46 8
50 47 10
50 48 7
50 49 5
51 0 1
51 1 2
51 2 7
51 3 6
51 4 4
51 5 9
51 6 4
51 7 2
51 8 8
51 9 3
51 10 5
51 11 9
51 12 5
51 13 8
51 14 2
51 15 9
51 16 5
51 17 8
51 18 8
51 19 10
51 20 6
51 21 2
51 22 7
51 23 3
51 24 1
51 25 6
51 26 1
51 27 9
51 28 9
51 29 9
51 30 5
51 31 7
51 32 9
51 33 2
51 34 7
51 35 8
51 36 1
51 37 4
51 38 7
51 39 10
51 40 9
51 41 8
51 42 7
51 43 4
51 44 9
51 45 2
51 46 8
51 47 5
51 48 10
51 49 8
51 50 10
52 0 1
52 1 2
52 2 2
52 3 10
52 4 3
52 5 4
52 6 4
52 7 4
52 8 4
52 9 5
52 10 1
52 11 8
52 12 8
52 13 9
52 14 8
52 15 6
52 16 6
52 17 6
52 18 2
52 19 10
52 20 5
52 21 2
52 22 7
52 23 2
52 24 9
52 25 6
52 26 10
52 27 4
52 28 8
52 29 8
52 30 3
52 31 9
52 32 2
52 33 4
52 34 4
52 35 7
52 36 3
52 37 7
52 38 2
52 39 5
52 40 7
52 41 8
52 42 1
52 43 9
52 44 4
52 45 10
52 46 5
52 47 6
52 48 7
52 49 10
52 50 10
52 51 1
53 0 7
53 1 6
53 2 1
53 3 6
53 4 10
53 5 4
53 6 8
53 7 6
53 8 2
53 9 5
53 10 7
53 11 8
53 12 8
53 13 2
53 14 3
53 15 8
53 16 4
53 17 1
53 18 9
53 19 8
53 20 8
53 21 3
53 22 10
53 23 2
53 24 6
53 25 3
53 26 7
53 27 3
53 28 5
53 29 4
53 30 7
53 31 7
53 32 6
53 33 10
53 34 6
53 35 1
53 36 10
53 37 2
53 38 7
53 39 9
53 40 7
53 41 3
53 42 6
53 43 10
53 44 6
53 45 4
53 46 3
53 47 1
53 48 6
53 49 1
53 50 10
53 51 8
53 52 8
54 0 5
54 1 10
54 2 4
54 3 1
54 4 3
54 5 3
54 6 2
54 7 6
54 8 3
54 9 9
54 10 8
54 11 2
54 12 8
54 13 10
54 14 1
54 15 7
54 16 2
54 17 5
54 18 7
54 19 4
54 20 6
54 21 3
54 22 10
54 23 8
54 24 6
54 25 4
54 26 1
54 27 6
54 28 5
54 29 6
54 30 8
54 31 4
54 32 4
54 33 9
54 34 1
54 35 5
54 36 1
54 37 5
54 38 10
54 39 3
54 40 3
54 41 4
54 42 8
54 43 7
54 44 1
54 45 8
54 46 5
54 47 8
54 48 2
54 49 9
54 50 7
54 51 4
54 52 5
54 53 9
55 0 9
55 1 6
55 2 2
55 3 7
55 4 2
55 5 4
55 6 10
55 7 10
55 8 2
55 9 10
55 10 3
55 11 1
55 12 2
55 13 1
55 14 2
55 15 1
55 16 2
55 17 1
55 18 10
55 19 5
55 20 4
55 21 8
55 22 4
55 23 2
55 24 3
55 25 8
55 26 3
55 27 4
55 28 6
55 29 2
55 30 7
55 31 5
55 32 10
55 33 8
55 34 10
55 35 1
55 36 8
55 37 9
55 38 8
55 39 3
55 40 10
55 41 4
55 42 4
55 43 7
55 44 5
55 45 8
55 46 2
55 47 5
55 48 7
55 49 2
55 50 2
55 51 6
55 52 10
55 53 6
55 54 4
56 0 5
56 1 2
56 2 4
56 3 6
56 4 6
56 5 6
56 6 7
56 7 10
56 8 8
56 9 6
56 10 4
56 11 10
56 12 3
56 13 5
56 14 5
56 15 2
56 16 1
56 17 6
56 18 8
56 19 7
56 20 7
56 21 10
56 22 2
56 23 4
56 24 4
56 25 2
56 26 10
56 27 1
56 28 9
56 29 7
56 30 9
56 31 4
56 32 7
56 33 7
56 34 5
56 35 10
56 36 5
56 37 5
56 38 5
56 39 2
56 40 4
56 41 6
56 42 4
56 43 5
56 44 10
56 45 4
56 46 10
56 47 6
56 48 1
56 49 7
56 50 1
56 51 10
56 52 4
56 53 7
56 54 7
56 55 6
57 0 10
57 1 1
57 2 5
57 3 3
57 4 4
57 5 6
57 6 3
57 7 3
57 8 4
57 9 10
57 10 6
57 11 4
57 12 4
57 13 10
57 14 5
57 15 1
57 16 7
57 17 1
57 18 1
57 19 7
57 20 6
57 21 9
57 22 2
57 23 5
57 24 9
57 25 2
57 26 7
57 27 5
57 28 2
57 29 9
57 30 1
57 31 6
57 32 2
57 33 4
57 34 1
57 35 3
57 36 9
57 37 1
57 38 4
57 39 1
57 40 2
57 41 4
57 42 4
57 43 2
57 44 3
57 45 4
57 46 1
57 47 2
57 48 10
57 49 1
57 50 5
57 51 3
57 52 4
57 53 4
57 54 2
57 55 10
57 56 4
58 0 9
58 1 2
58 2 5
58 3 9
58 4 4
58 5 9
58 6 6
58 7 10
58 8 8
58 9 2
58 10 4
58 11 2
58 12 5
58 13 10
58 14 3
58 15 6
58 16 6
58 17 6
58 18 9
58 19 8
58 20 1
58 21 4
58 22 2
58 23 10
58 24 3
58 25 2
58 26 10
58 27 4
58 28 7
58 29 4
58 30 6
58 31 7
58 32 4
58 33 10
58 34 10
58 35 9
58 36 7
58 37 6
58 38 7
58 39 10
58 40 7
58 41 2
58 42 7
58 43 7
58 44 8
58 45 1
58 46 1
58 47 4
58 48 3
58 49 8
58 50 7
58 51 4
58 52 9
58 53 8
58 54 8
58 55 6
58 56 5
58 57 3
59 0 6
59 1 7
59 2 10
59 3 3
59 4 7
59 5 7
59 6 9
59 7 8
59 8 3
59 9 5
59 10 9
59 11 8
59 12 4
59 13 4
59 14 10
59 15 6
59 16 6
59 17 7
59 18 5
59 19 3
59 20 3
59 21 7
59 22 8
59 23 6
59 24 2
59 25 8
59 26 8
59 27 9
59 28 2
59 29 5
59 30 4
59 31 2
59 32 1
59 33 7
59 34 4
59 35 6
59 36 3
59 37 5
59 38 8
59 39 8
59 40 6
59 41 4
59 42 2
59 43 10
59 44 5
59 45 4
59 46 3
59 47 9
59 48 8
59 49 5
59 50 6
59 51 6
59 52 10
59 53 1
59 54 5
59 55 6
59 56 3
59 57 8
59 58 3
60 0 2
60 1 9
60 2 4
60 3 2
60 4 2
60 5 9
60 6 10
60 7 4
60 8 4
60 9 8
60 10 5
60 11 1
60 12 5
60 13 2
60 14 8
60 15 8
60 16 3
60 17 6
60 18 9
60 19 9
60 20 6
60 21 5
60 22 6
60 23 3
60 24 10
60 25 2
60 26 7
60 27 9
60 28 1
60 29 6
60 30 5
60 31 6
60 32 6
60 33 3
60 34 7
60 35 4
60 36 1
60 37 10
60 38 10
60 39 9
60 40 6
60 41 4
60 42 8
60 43 8
60 44 2
60 45 2
60 46 9
60 47 2
60 48 3
60 49 4
60 50 3
60 51 4
60 52 2
60 53 4
60 54 8
60 55 6
60 56 3
60 57 10
60 58 7
60 59 9
61 0 5
61 1 9
61 2 6
61 3 9
61 4 9
61 5 3
61 6 10
61 7 1
61 8 8
61 9 1
61 10 5
61 11 6
61 12 7
61 13 9
61 14 9
61 15 3
61 16 10
61 17 1
61 18 3
61 19 4
61 20 3
61 21 5
61 22 10
61 23 3
61 24 4
61 25 2
61 26 6
61 27 9
61 28 4
61 29 4
61 30 1
61 31 6
61 32 2
61 33 3
61 34 6
61 35 10
61 36 8
61 37 1
61 38 5
61 39 3
61 40 10
61 41 5
61 42 3
61 43 6
61 44 1
61 45 6
61 46 1
61 47 5
61 48 10
61 49 8
61 50 10
61 51 6
61 52 2
61 53 4
61 54 1
61 55 6
61 56 4
61 57 2
61 58 9
61 59 7
61 60 4
62 0 4
62 1 10
62 2 1
62 3 3
62 4 6
62 5 4
62 6 2
62 7 5
62 8 6
62 9 4
62 10 7
62 11 10
62 12 8
62 13 1
62 14 2
62 15 3
62 16 2
62 17 8
62 18 2
62 19 5
62 20 7
62 21 7
62 22 2
62 23 1
62 24 9
62 25 10
62 26 8
62 27 10
62 28 10
62 29 7
62 30 3
62 31 9
62 32 2
62 33 8
62 34 10
62 35 9
62 36 8
62 37 4
62 38 9
62 39 10
62 40 5
62 41 6
62 42 2
62 43 2
62 44 8
62 45 8
62 46 9
62 47 1
62 48 6
62 49 5
62 50 7
62 51 10
62 52 8
62 53 9
62 54 1
62 55 2
62 56 1
62 57 3
62 58 9
62 59 7
62 60 6
62 61 7
63 0 5
63 1 9
63 2 6
63 3 4
63 4 9
63 5 10
63 6 1
63 7 8
63 8 10
63 9 3
63 10 5
63 11 4
63 12 10
63 13 7
63 14 4
63 15 6
63 16 1
63 17 5
63 18 3
63 19 7
63 20 7
63 21 6
63 22 3
63 23 3
63 24 4
63 25 9
63 26 5
63 27 2
63 28 9
63 29 6
63 30 10
63 31 1
63 32 8
63 33 2
63 34 7
63 35 2
63 36 5
63 37 3
63 38 5
63 39 3
63 40 10
63 41 4
63 42 10
63 43 10
63 44 4
63 45 3
63 46 10
63 47 3
63 48 8
63 49 2
63 50 2
63 51 7
63 52 7
63 53 7
63 54 1
63 55 3
63 56 3
63 57 10
63 58 6
63 59 1
63 60 5
63 61 2
63 62 2
64 0 9
64 1 9
64 2 4
64 3 5
64 4 5
64 5 7
64 6 7
64 7 9
64 8 8
64 9 2
64 10 7
64 11 2
64 12 4
64 13 5
64 14 6
64 15 9
64 16 9
64 17 6
64 18 4
64 19 4
64 20 10
64 21 9
64 22 10
64 23 3
64 24 10
64 25 5
64 26 2
64 27 3
64 28 5
64 29 7
64 30 1
64 31 5
64 32 9
64 33 5
64 34 3
64 35 7
64 36 1
64 37 10
64 38 7
64 39 8
64 40 2
64 41 9
64 42 2
64 43 3
64 44 7
64 45 10
64 46 1
64 47 9
64 48 7
64 49 7
64 50 4
64 51 2
64 52 2
64 53 5
64 54 6
64 55 6
64 56 5
64 57 10
64 58 6
64 59 9
64 60 5
64 61 8
64 62 1
64 63 4
65 0 5
65 1 6
65 2 7
65 3 1
65 4 5
65 5 2
65 6 5
65 7 8
65 8 8
65 9 2
65 10 10
65 11 2
65 12 2
65 13 4
65 14 8
65 15 8
65 16 5
65 17 2
65 18 4
65 19 9
65 20 4
65 21 9
65 22 1
65 23 8
65 24 1
65 25 6
65 26 5
65 27 4
65 28 7
65 29 3
65 30 5
65 31 2
65 32 7
65 33 7
65 34 7
65 35 6
65 36 9
65 37 10
65 38 5
65 39 3
65 40 9
65 41 7
65 42 4
65 43 4
65 44 8
65 45 2
65 46 7
65 47 7
65 48 5
65 49 1
65 50 6
65 51 3
65 52 1
65 53 8
65 54 10
65 55 6
65 56 1
65 57 8
65 58 1
65 59 4
65 60 3
65 61 5
65 62 5
65 63 5
65 64 4
66 0 8
66 1 10
66 2 7
66 3 10
66 4 7
66 5 9
66 6 2
66 7 10
66 8 2
66 9 4
66 10 5
66 11 4
66 12 1
66 13 5
66 14 8
66 15 9
66 16 8
66 17 8
66 18 1
66 19 8
66 20 3
66 21 5
66 22 5
66 23 4
66 24 2
66 25 10
66 26 8
66 27 5
66 28 4
66 29 9
66 30 2
66 31 8
66 32 8
66 33 9
66 34 8
66 35 1
66 36 10
66 37 1
66 38 6
66 39 9
66 40 2
66 41 1
66 42 8
66 43 3
66 44 2
66 45 3
66 46 7
66 47 6
66 48 10
66 49 10
66 50 2
66 51 4
66 52 10
66 53 10
66 54 9
66 55 5
66 56 3
66 57 8
66 58 2
66 59 4
66 60 7
66 61 5
66 62 9
66 63 1
66 64 4
66 65 5
67 0 7
67 1 2
67 2 4
67 3 10
67 4 3
67 5 5
67 6 9
67 7 8
67 8 1
67 9 10
67 10 9
67 11 3
67 12 7
67 13 6
67 14 7
67 15 9
67 16 6
67 17 3
67 18 5
67 19 1
67 20 2
67 21 3
67 22 1
67 23 2
67 24 8
67 25 4
67 26 5
67 27 2
67 28 4
67 29 10
67 30 4
67 31 8
67 32 3
67 33 1
67 34 1
67 35 2
67 36 4
67 37 5
67 38 2
67 39 2
67 40 4
67 41 4
67 42 3
67 43 4
67 44 6
67 45 1
67 46 6
67 47 3
67 48 7
67 49 6
67 50 1
67 51 7
67 52 3
67 53 2
67 54 10
67 55 2
67 56 10
67 57 1
67 58 7
67 59 3
67 60 7
67 61 6
67 62 8
67 63 1
67 64 9
67 65 5
67 66 6
68 0 6
68 1 5
68 2 1
68 3 2
68 4 5
68 5 1
68 6 5
68 7 3
68 8 8
68 9 4
68 10 8
68 11 5
68 12 3
68 13 4
68 14 1
68 15 2
68 16 2
68 17 4
68 18 8
68 19 10
68 20 7
68 21 9
68 22 6
68 23 9
68 24 4
68 25 6
68 26 10
68 27 1
68 28 8
68 29 7
68 30 3
68 31 9
68 32 2
68 33 5
68 34 6
68 35 10
68 36 6
68 37 3
68 38 5
68 39 7
68 40 8
68 41 9
68 42 7
68 43 7
68 44 8
68 45 4
68 46 9
68 47 6
68 48 9
68 49 2
68 50 7
68 51 6
68 52 8
68 53 2
68 54 8
68 55 10
68 56 8
68 57 2
68 58 7
68 59 10
68 60 6
68 61 4
68 62 10
68 63 2
68 64 1
68 65 10
68 66 2
68 67 1
69 0 2
69 1 1
69 2 2
69 3 5
69 4 3
69 5 2
69 6 8
69 7 10
69 8 4
69 9 2
69 10 8
69 11 3
69 12 5
69 13 4
69 14 2
69 15 5
69 16 6
69 17 5
69 18 3
69 19 8
69 20 4
69 21 6
69 22 8
69 23 4
69 24 2
69 25 8
69 26 10
69 27 4
69 28 3
69 29 5
69 30 2
69 31 5
69 32 1
69 33 2
69 34 10
69 35 9
69 36 4
69 37 7
69 38 4
69 39 2
69 40 5
69 41 2
69 42 4
69 43 9
69 44 3
69 45 2
69 46 5
69 47 4
69 48 4
69 49 6
69 50 6
69 51 6
69 52 2
69 53 4
69 54 9
69 55 6
69 56 5
69 57 5
69 58 9
69 59 4
69 60 3
69 61 4
69 62 3
69 63 8
69 64 10
69 65 8
69 66 9
69 67 3
69 68 6
